SYSTEM=GaNBAs

NWRITE=2
ISTART=1
ICHARG=1

ENCUT=1000
ISYM=0

ALGO=Normal
PREC=Accurate
LREAL=.FALSE.

#Electronic steps
NELM=100
NELMIN=4
EDIFF=1.0E-6

#Ionic steps
NSW=600
ISIF=3
IBRION=2
POTIM=0.2
EDIFFG=-1.0E-2

#DOS related values:
ISMEAR=0 
SIGMA=0.1

LWAVE=.FALSE.
LCHARG=.TRUE.

#ADDGRID=.TRUE.
NPAR=1
