Generated using phonoLAMMPS             
   1.00000000000000     
     3.4061898152424210   -0.0000000010338958    0.0000000051977806
     1.7030948915361945    2.9498469193851968   -0.0000000038743494
     1.7030948866900704    0.9832823055256394    2.7811423501446826
   As   B 
     1     1
Direct
  0.2499999969720292  0.2500000029243289  0.2500000048389776
  0.9999999960105668  0.0000000020841234  0.0000000041433909
 
  0.00000000E+00  0.00000000E+00  0.00000000E+00
  0.00000000E+00  0.00000000E+00  0.00000000E+00
