Ga2 N2                                  
   1.00000000000000     
     3.2485568939990599    0.0000009807638509   -0.0000005051319439
    -1.6242792166269235    2.8133286355589697    0.0000003356494680
     0.0000009572598179    0.0000000035156896    5.2828852875239463
   Ga   N 
     2     2
Direct
  0.3333332770703036  0.6666664607628335  0.9989519978646545
  0.6666666882682226  0.3333335013222706  0.4989520000236332
  0.3333332091879000  0.6666665642060324  0.3760479952274988
  0.6666667674734924  0.3333334157088949  0.8760480068842569
 
  0.00000000E+00  0.00000000E+00  0.00000000E+00
  0.00000000E+00  0.00000000E+00  0.00000000E+00
  0.00000000E+00  0.00000000E+00  0.00000000E+00
  0.00000000E+00  0.00000000E+00  0.00000000E+00
