SYSTEM=Silicene

NWRITE=2
ISTART=0
ICHARG=2

ENCUT=1000
ISYM=2

ALGO=Normal
PREC=Accurate
LREAL=.FALSE.

Electronic steps
NELM=60
NELMIN=8
EDIFF=1.0E-6

Ionic steps
NSW=0
ISIF=0
IBRION=-1

DOS related values:
ISMEAR=0 
SIGMA=0.1
POTIM=0.1

LWAVE=.FALSE.
LCHARG=.FALSE.
#NPAR=1
ADDGRID=.TRUE.
