Ga32 B32 As32 N32
1.0
16.645390 0.396848 0.012827
0.237818 10.470756 0.001096
-0.007846 -0.000885 10.204252
As B Ga N
32 32 32 32
direct
0.076658 0.367905 0.385270 As
0.076658 0.867905 0.385270 As
0.076658 0.367905 0.885270 As
0.076658 0.867905 0.885270 As
0.072560 0.122661 0.133056 As
0.072560 0.622661 0.133056 As
0.072560 0.122661 0.633056 As
0.072560 0.622661 0.633056 As
0.213631 0.111857 0.386668 As
0.213631 0.611857 0.386668 As
0.213631 0.111857 0.886668 As
0.213631 0.611857 0.886668 As
0.216500 0.362235 0.137463 As
0.216500 0.862235 0.137463 As
0.216500 0.362235 0.637463 As
0.216500 0.862235 0.637463 As
0.353142 0.351803 0.387463 As
0.353142 0.851803 0.387463 As
0.353142 0.351803 0.887463 As
0.353142 0.851803 0.887463 As
0.356010 0.102181 0.136668 As
0.356010 0.602181 0.136668 As
0.356010 0.102181 0.636668 As
0.356010 0.602181 0.636668 As
0.497082 0.091378 0.383055 As
0.497082 0.591378 0.383055 As
0.497082 0.091378 0.883055 As
0.497082 0.591378 0.883055 As
0.492983 0.346135 0.135270 As
0.492983 0.846135 0.135270 As
0.492983 0.346135 0.635270 As
0.492983 0.846135 0.635270 As
0.024500 0.035443 0.471990 B
0.024500 0.535443 0.471990 B
0.024500 0.035443 0.971990 B
0.024500 0.535443 0.971990 B
0.146460 0.249231 0.013694 B
0.146460 0.749231 0.013694 B
0.146460 0.249231 0.513694 B
0.146460 0.749231 0.513694 B
0.144501 0.491532 0.253252 B
0.144501 0.991532 0.253252 B
0.144501 0.491532 0.753252 B
0.144501 0.991532 0.753252 B
0.284910 0.231851 0.261879 B
0.284910 0.731851 0.261879 B
0.284910 0.231851 0.761879 B
0.284910 0.731851 0.761879 B
0.284731 0.482187 0.011879 B
0.284731 0.982187 0.011879 B
0.284731 0.482187 0.511879 B
0.284731 0.982187 0.511879 B
0.425140 0.222507 0.003252 B
0.425140 0.722507 0.003252 B
0.425140 0.222507 0.503252 B
0.425140 0.722507 0.503252 B
0.423181 0.464808 0.263695 B
0.423181 0.964808 0.263695 B
0.423181 0.464808 0.763695 B
0.423181 0.964808 0.763695 B
0.545142 0.178597 0.221990 B
0.545142 0.678597 0.221990 B
0.545142 0.178597 0.721990 B
0.545142 0.678597 0.721990 B
0.631340 0.156564 0.469986 Ga
0.631340 0.656564 0.469986 Ga
0.631340 0.156564 0.969986 Ga
0.631340 0.656564 0.969986 Ga
0.732045 0.072706 0.223829 Ga
0.732045 0.572706 0.223829 Ga
0.732045 0.072706 0.723829 Ga
0.732045 0.572706 0.723829 Ga
0.633956 0.342110 0.222617 Ga
0.633956 0.842110 0.222617 Ga
0.633956 0.342110 0.722617 Ga
0.633956 0.842110 0.722617 Ga
0.732113 0.395906 0.467492 Ga
0.732113 0.895906 0.467492 Ga
0.732113 0.395906 0.967492 Ga
0.732113 0.895906 0.967492 Ga
0.837596 0.141336 0.473829 Ga
0.837596 0.641336 0.473829 Ga
0.837596 0.141336 0.973829 Ga
0.837596 0.641336 0.973829 Ga
0.938301 0.057478 0.219986 Ga
0.938301 0.557478 0.219986 Ga
0.938301 0.057478 0.719986 Ga
0.938301 0.557478 0.719986 Ga
0.837528 0.318136 0.217492 Ga
0.837528 0.818136 0.217492 Ga
0.837528 0.318136 0.717492 Ga
0.837528 0.818136 0.717492 Ga
0.935685 0.371931 0.472617 Ga
0.935685 0.871931 0.472617 Ga
0.935685 0.371931 0.972617 Ga
0.935685 0.871931 0.972617 Ga
0.623019 0.147647 0.165655 N
0.623019 0.647647 0.165655 N
0.623019 0.147647 0.665655 N
0.623019 0.647647 0.665655 N
0.735535 0.073746 0.414409 N
0.735535 0.573746 0.414409 N
0.735535 0.073746 0.914409 N
0.735535 0.573746 0.914409 N
0.633656 0.329088 0.408186 N
0.633656 0.829088 0.408186 N
0.633656 0.329088 0.908186 N
0.633656 0.829088 0.908186 N
0.734045 0.398984 0.158103 N
0.734045 0.898984 0.158103 N
0.734045 0.398984 0.658103 N
0.734045 0.898984 0.658103 N
0.834106 0.140296 0.164409 N
0.834106 0.640296 0.164409 N
0.834106 0.140296 0.664409 N
0.834106 0.640296 0.664409 N
0.946623 0.066395 0.415655 N
0.946623 0.566395 0.415655 N
0.946623 0.066395 0.915655 N
0.946623 0.566395 0.915655 N
0.835596 0.315058 0.408104 N
0.835596 0.815058 0.408104 N
0.835596 0.315058 0.908104 N
0.835596 0.815058 0.908104 N
0.935985 0.384955 0.158186 N
0.935985 0.884955 0.158186 N
0.935985 0.384955 0.658186 N
0.935985 0.884955 0.658186 N
