Generated using phonoLAMMPS
1.0
        3.4121462401         0.0000000000         0.0000000000
        1.7060730958         2.9550053235         0.0000000000
        1.7060730948         0.9850017675         2.7860057378
As B 
1 1
Direct
0.249853454087508   0.249413838998574   0.249120759509731
0.999853452969729   0.999413838872893   0.999120759509731
