Generated using phonoLAMMPS
1.0
        3.4061697305         0.0000000000         0.0000000000
        1.7030848302         2.9498295366         0.0000000000
        1.7030848340         0.9832765040         2.7811259617
B As 
1 1
Direct
0.249999997242216   0.250000003066091   0.250000004988987
0.999999995740366   0.000000001942359   0.000000003993363
